ilp_joint_2/output/mitosis_ilp.lp
Maximize
  0.00820137045216379 Z_4_1_0 + 7.33179704847986e-04 Z_4_1_1
   + 0.0233704758566949 Z_4_1_2 + 0.4498770044574531 Z_4_1_3
   + 0.00324026233880209 Z_43_1_0 + 0.00374106968272403 Z_43_1_1
   + 0.2305569440878563 Z_43_1_2 + 0.4471907197389673 Z_43_1_3
   + 0.00302149375651084 Z_20_1_0 + 0.00437117658852804 Z_20_1_1
   + 0.2039679143371391 Z_20_1_2 + 0.4494437409281782 Z_20_1_3
   + 0.0362872280146943 Z_80_1_0 + 0.00532166655620048 Z_80_1_1
   + 0.0212484850564223 Z_80_1_2 + 0.3633824539057584 Z_80_1_3
   + 0.409437063920433 Z_80_2_0 + 0.0243885301569235 Z_80_2_1
   + 0.00193570600517218 Z_80_2_2 + 0.0845200352617438 Z_80_2_3
   + 0.00589418978334644 Z_80_3_0 + 0.00429606131241378 Z_80_3_1
   + 0.4398724224227732 Z_80_3_2 + 0.0146953949643741 Z_80_3_3
   + 0.00127487323041781 Z_120_1_0 + 0.00251018 Z_120_1_1
   + 0.4544362340354046 Z_120_1_2 + 0.00626586645665775 Z_120_1_3
   + 6.6081417321639524e-04 Z_40_1_0 + 0.0019211783216993 Z_40_1_1
   + 0.4517428038330955 Z_40_1_2 + 0.00807515899792396 Z_40_1_3 + [
   1.017036445226931 Z_4_1_0 * Z_43_1_0
   + 0.7332223780076598 Z_4_1_0 * Z_20_1_0
   + 0.6991693493272371 Z_4_1_0 * Z_80_1_0
   + 0.1119418976940101 Z_4_1_0 * Z_40_1_0
   + 1.017036445226931 Z_4_1_1 * Z_43_1_1
   + 0.7332223780076598 Z_4_1_1 * Z_20_1_1
   + 0.6991693493272371 Z_4_1_1 * Z_80_1_1
   + 0.1119418976940101 Z_4_1_1 * Z_40_1_1
   + 1.017036445226931 Z_4_1_2 * Z_43_1_2
   + 0.7332223780076598 Z_4_1_2 * Z_20_1_2
   + 0.6991693493272371 Z_4_1_2 * Z_80_1_2
   + 0.1119418976940101 Z_4_1_2 * Z_40_1_2
   + 1.017036445226931 Z_4_1_3 * Z_43_1_3
   + 0.7332223780076598 Z_4_1_3 * Z_20_1_3
   + 0.6991693493272371 Z_4_1_3 * Z_80_1_3
   + 0.1119418976940101 Z_4_1_3 * Z_40_1_3
   + 0.9514527576515778 Z_43_1_0 * Z_20_1_0 + 2 Z_43_1_0 * Z_80_1_0
   + 1.288768299563002 Z_43_1_0 * Z_80_2_0
   + 0.0399152321248349 Z_43_1_0 * Z_40_1_0
   + 0.9514527576515778 Z_43_1_1 * Z_20_1_1 + 2 Z_43_1_1 * Z_80_1_1
   + 1.288768299563002 Z_43_1_1 * Z_80_2_1
   + 0.0399152321248349 Z_43_1_1 * Z_40_1_1
   + 0.9514527576515778 Z_43_1_2 * Z_20_1_2 + 2 Z_43_1_2 * Z_80_1_2
   + 1.288768299563002 Z_43_1_2 * Z_80_2_2
   + 0.0399152321248349 Z_43_1_2 * Z_40_1_2
   + 0.9514527576515778 Z_43_1_3 * Z_20_1_3 + 2 Z_43_1_3 * Z_80_1_3
   + 1.288768299563002 Z_43_1_3 * Z_80_2_3
   + 0.0399152321248349 Z_43_1_3 * Z_40_1_3
   + 1.45409223824898 Z_20_1_0 * Z_80_1_0
   + 1.288768299563002 Z_20_1_0 * Z_80_2_0 + 2 Z_20_1_0 * Z_80_3_0
   + 2 Z_20_1_0 * Z_120_1_0 + 0.0180513786082898 Z_20_1_0 * Z_40_1_0
   + 1.45409223824898 Z_20_1_1 * Z_80_1_1
   + 1.288768299563002 Z_20_1_1 * Z_80_2_1 + 2 Z_20_1_1 * Z_80_3_1
   + 2 Z_20_1_1 * Z_120_1_1 + 0.0180513786082898 Z_20_1_1 * Z_40_1_1
   + 1.45409223824898 Z_20_1_2 * Z_80_1_2
   + 1.288768299563002 Z_20_1_2 * Z_80_2_2 + 2 Z_20_1_2 * Z_80_3_2
   + 2 Z_20_1_2 * Z_120_1_2 + 0.0180513786082898 Z_20_1_2 * Z_40_1_2
   + 1.45409223824898 Z_20_1_3 * Z_80_1_3
   + 1.288768299563002 Z_20_1_3 * Z_80_2_3 + 2 Z_20_1_3 * Z_80_3_3
   + 2 Z_20_1_3 * Z_120_1_3 + 0.0180513786082898 Z_20_1_3 * Z_40_1_3
   + 2 Z_80_3_0 * Z_120_1_0 + 0.0078125 Z_80_3_0 * Z_40_1_0
   + 2 Z_80_3_1 * Z_120_1_1 + 0.0078125 Z_80_3_1 * Z_40_1_1
   + 2 Z_80_3_2 * Z_120_1_2 + 0.0078125 Z_80_3_2 * Z_40_1_2
   + 2 Z_80_3_3 * Z_120_1_3 + 0.0078125 Z_80_3_3 * Z_40_1_3
   + 0.0078125 Z_120_1_0 * Z_40_1_0 + 0.0078125 Z_120_1_1 * Z_40_1_1
   + 0.0078125 Z_120_1_2 * Z_40_1_2 + 0.0078125 Z_120_1_3 * Z_40_1_3 ] / 2 
Subject To
 constraint1_41: Z_4_1_0 + Z_4_1_1 + Z_4_1_2 + Z_4_1_3 <= 1
 constraint1_431: Z_43_1_0 + Z_43_1_1 + Z_43_1_2 + Z_43_1_3 <= 1
 constraint1_201: Z_20_1_0 + Z_20_1_1 + Z_20_1_2 + Z_20_1_3 <= 1
 constraint1_801: Z_80_1_0 + Z_80_1_1 + Z_80_1_2 + Z_80_1_3 <= 1
 constraint1_802: Z_80_2_0 + Z_80_2_1 + Z_80_2_2 + Z_80_2_3 <= 1
 constraint1_803: Z_80_3_0 + Z_80_3_1 + Z_80_3_2 + Z_80_3_3 <= 1
 constraint1_1201: Z_120_1_0 + Z_120_1_1 + Z_120_1_2 + Z_120_1_3 <= 1
 constraint1_401: Z_40_1_0 + Z_40_1_1 + Z_40_1_2 + Z_40_1_3 <= 1
 constraint2_40: Z_4_1_0 <= 1
 constraint2_41: Z_4_1_1 <= 1
 constraint2_42: Z_4_1_2 <= 1
 constraint2_43: Z_4_1_3 <= 1
 constraint2_430: Z_43_1_0 <= 1
 constraint2_431: Z_43_1_1 <= 1
 constraint2_432: Z_43_1_2 <= 1
 constraint2_433: Z_43_1_3 <= 1
 constraint2_200: Z_20_1_0 <= 1
 constraint2_201: Z_20_1_1 <= 1
 constraint2_202: Z_20_1_2 <= 1
 constraint2_203: Z_20_1_3 <= 1
 constraint2_800: Z_80_1_0 + Z_80_2_0 + Z_80_3_0 <= 1
 constraint2_801: Z_80_1_1 + Z_80_2_1 + Z_80_3_1 <= 1
 constraint2_802: Z_80_1_2 + Z_80_2_2 + Z_80_3_2 <= 1
 constraint2_803: Z_80_1_3 + Z_80_2_3 + Z_80_3_3 <= 1
 constraint2_1200: Z_120_1_0 <= 1
 constraint2_1201: Z_120_1_1 <= 1
 constraint2_1202: Z_120_1_2 <= 1
 constraint2_1203: Z_120_1_3 <= 1
 constraint2_400: Z_40_1_0 <= 1
 constraint2_401: Z_40_1_1 <= 1
 constraint2_402: Z_40_1_2 <= 1
 constraint2_403: Z_40_1_3 <= 1
 constraint2_1060: <= 1
 constraint2_1061: <= 1
 constraint2_1062: <= 1
 constraint2_1063: <= 1
Bounds
Binaries
 Z_4_1_0 Z_4_1_1 Z_4_1_2 Z_4_1_3 Z_43_1_0 Z_43_1_1 Z_43_1_2 Z_43_1_3
 Z_20_1_0 Z_20_1_1 Z_20_1_2 Z_20_1_3 Z_80_1_0 Z_80_1_1 Z_80_1_2 Z_80_1_3
 Z_80_2_0 Z_80_2_1 Z_80_2_2 Z_80_2_3 Z_80_3_0 Z_80_3_1 Z_80_3_2 Z_80_3_3
 Z_120_1_0 Z_120_1_1 Z_120_1_2 Z_120_1_3 Z_40_1_0 Z_40_1_1 Z_40_1_2
 Z_40_1_3
End
