ilp_joint_2/output/mitosis_ilp.mps
NAME mitosis_srl_ilp
* Max problem is converted into Min one
ROWS
 N  OBJ
 L  constraint1_41
 L  constraint1_431
 L  constraint1_201
 L  constraint1_801
 L  constraint1_802
 L  constraint1_803
 L  constraint1_1201
 L  constraint1_401
 L  constraint2_40
 L  constraint2_41
 L  constraint2_42
 L  constraint2_43
 L  constraint2_430
 L  constraint2_431
 L  constraint2_432
 L  constraint2_433
 L  constraint2_200
 L  constraint2_201
 L  constraint2_202
 L  constraint2_203
 L  constraint2_800
 L  constraint2_801
 L  constraint2_802
 L  constraint2_803
 L  constraint2_1200
 L  constraint2_1201
 L  constraint2_1202
 L  constraint2_1203
 L  constraint2_400
 L  constraint2_401
 L  constraint2_402
 L  constraint2_403
 L  constraint2_1060
 L  constraint2_1061
 L  constraint2_1062
 L  constraint2_1063
COLUMNS
    MARKER    'MARKER'                 'INTORG'
    Z_4_1_0   OBJ       -8.2013704521637920e-03
    Z_4_1_0   constraint1_41  1
    Z_4_1_0   constraint2_40  1
    Z_4_1_1   OBJ       -7.3317970484798600e-04
    Z_4_1_1   constraint1_41  1
    Z_4_1_1   constraint2_41  1
    Z_4_1_2   OBJ       -2.3370475856694883e-02
    Z_4_1_2   constraint1_41  1
    Z_4_1_2   constraint2_42  1
    Z_4_1_3   OBJ       -4.4987700445745310e-01
    Z_4_1_3   constraint1_41  1
    Z_4_1_3   constraint2_43  1
    Z_43_1_0  OBJ       -3.2402623388020912e-03
    Z_43_1_0  constraint1_431  1
    Z_43_1_0  constraint2_430  1
    Z_43_1_1  OBJ       -3.7410696827240297e-03
    Z_43_1_1  constraint1_431  1
    Z_43_1_1  constraint2_431  1
    Z_43_1_2  OBJ       -2.3055694408785626e-01
    Z_43_1_2  constraint1_431  1
    Z_43_1_2  constraint2_432  1
    Z_43_1_3  OBJ       -4.4719071973896735e-01
    Z_43_1_3  constraint1_431  1
    Z_43_1_3  constraint2_433  1
    Z_20_1_0  OBJ       -3.0214937565108402e-03
    Z_20_1_0  constraint1_201  1
    Z_20_1_0  constraint2_200  1
    Z_20_1_1  OBJ       -4.3711765885280363e-03
    Z_20_1_1  constraint1_201  1
    Z_20_1_1  constraint2_201  1
    Z_20_1_2  OBJ       -2.0396791433713912e-01
    Z_20_1_2  constraint1_201  1
    Z_20_1_2  constraint2_202  1
    Z_20_1_3  OBJ       -4.4944374092817824e-01
    Z_20_1_3  constraint1_201  1
    Z_20_1_3  constraint2_203  1
    Z_80_1_0  OBJ       -3.6287228014694306e-02
    Z_80_1_0  constraint1_801  1
    Z_80_1_0  constraint2_800  1
    Z_80_1_1  OBJ       -5.3216665562004772e-03
    Z_80_1_1  constraint1_801  1
    Z_80_1_1  constraint2_801  1
    Z_80_1_2  OBJ       -2.1248485056422295e-02
    Z_80_1_2  constraint1_801  1
    Z_80_1_2  constraint2_802  1
    Z_80_1_3  OBJ       -3.6338245390575841e-01
    Z_80_1_3  constraint1_801  1
    Z_80_1_3  constraint2_803  1
    Z_80_2_0  OBJ       -4.0943706392043300e-01
    Z_80_2_0  constraint1_802  1
    Z_80_2_0  constraint2_800  1
    Z_80_2_1  OBJ       -2.4388530156923549e-02
    Z_80_2_1  constraint1_802  1
    Z_80_2_1  constraint2_801  1
    Z_80_2_2  OBJ       -1.9357060051721775e-03
    Z_80_2_2  constraint1_802  1
    Z_80_2_2  constraint2_802  1
    Z_80_2_3  OBJ       -8.4520035261743787e-02
    Z_80_2_3  constraint1_802  1
    Z_80_2_3  constraint2_803  1
    Z_80_3_0  OBJ       -5.8941897833464374e-03
    Z_80_3_0  constraint1_803  1
    Z_80_3_0  constraint2_800  1
    Z_80_3_1  OBJ       -4.2960613124137792e-03
    Z_80_3_1  constraint1_803  1
    Z_80_3_1  constraint2_801  1
    Z_80_3_2  OBJ       -4.3987242242277319e-01
    Z_80_3_2  constraint1_803  1
    Z_80_3_2  constraint2_802  1
    Z_80_3_3  OBJ       -1.4695394964374102e-02
    Z_80_3_3  constraint1_803  1
    Z_80_3_3  constraint2_803  1
    Z_120_1_0  OBJ       -1.2748732304178056e-03
    Z_120_1_0  constraint1_1201  1
    Z_120_1_0  constraint2_1200  1
    Z_120_1_1  OBJ       -2.5101800230290516e-03
    Z_120_1_1  constraint1_1201  1
    Z_120_1_1  constraint2_1201  1
    Z_120_1_2  OBJ       -4.5443623403540462e-01
    Z_120_1_2  constraint1_1201  1
    Z_120_1_2  constraint2_1202  1
    Z_120_1_3  OBJ       -6.2658664566577474e-03
    Z_120_1_3  constraint1_1201  1
    Z_120_1_3  constraint2_1203  1
    Z_40_1_0  OBJ       -6.6081417321639524e-04
    Z_40_1_0  constraint1_401  1
    Z_40_1_0  constraint2_400  1
    Z_40_1_1  OBJ       -1.9211783216993017e-03
    Z_40_1_1  constraint1_401  1
    Z_40_1_1  constraint2_401  1
    Z_40_1_2  OBJ       -4.5174280383309551e-01
    Z_40_1_2  constraint1_401  1
    Z_40_1_2  constraint2_402  1
    Z_40_1_3  OBJ       -8.0751589979239560e-03
    Z_40_1_3  constraint1_401  1
    Z_40_1_3  constraint2_403  1
    MARKER    'MARKER'                 'INTEND'
RHS
    RHS1      constraint1_41  1
    RHS1      constraint1_431  1
    RHS1      constraint1_201  1
    RHS1      constraint1_801  1
    RHS1      constraint1_802  1
    RHS1      constraint1_803  1
    RHS1      constraint1_1201  1
    RHS1      constraint1_401  1
    RHS1      constraint2_40  1
    RHS1      constraint2_41  1
    RHS1      constraint2_42  1
    RHS1      constraint2_43  1
    RHS1      constraint2_430  1
    RHS1      constraint2_431  1
    RHS1      constraint2_432  1
    RHS1      constraint2_433  1
    RHS1      constraint2_200  1
    RHS1      constraint2_201  1
    RHS1      constraint2_202  1
    RHS1      constraint2_203  1
    RHS1      constraint2_800  1
    RHS1      constraint2_801  1
    RHS1      constraint2_802  1
    RHS1      constraint2_803  1
    RHS1      constraint2_1200  1
    RHS1      constraint2_1201  1
    RHS1      constraint2_1202  1
    RHS1      constraint2_1203  1
    RHS1      constraint2_400  1
    RHS1      constraint2_401  1
    RHS1      constraint2_402  1
    RHS1      constraint2_403  1
    RHS1      constraint2_1060  1
    RHS1      constraint2_1061  1
    RHS1      constraint2_1062  1
    RHS1      constraint2_1063  1
BOUNDS
 UP BND1      Z_4_1_0   1
 UP BND1      Z_4_1_1   1
 UP BND1      Z_4_1_2   1
 UP BND1      Z_4_1_3   1
 UP BND1      Z_43_1_0  1
 UP BND1      Z_43_1_1  1
 UP BND1      Z_43_1_2  1
 UP BND1      Z_43_1_3  1
 UP BND1      Z_20_1_0  1
 UP BND1      Z_20_1_1  1
 UP BND1      Z_20_1_2  1
 UP BND1      Z_20_1_3  1
 UP BND1      Z_80_1_0  1
 UP BND1      Z_80_1_1  1
 UP BND1      Z_80_1_2  1
 UP BND1      Z_80_1_3  1
 UP BND1      Z_80_2_0  1
 UP BND1      Z_80_2_1  1
 UP BND1      Z_80_2_2  1
 UP BND1      Z_80_2_3  1
 UP BND1      Z_80_3_0  1
 UP BND1      Z_80_3_1  1
 UP BND1      Z_80_3_2  1
 UP BND1      Z_80_3_3  1
 UP BND1      Z_120_1_0  1
 UP BND1      Z_120_1_1  1
 UP BND1      Z_120_1_2  1
 UP BND1      Z_120_1_3  1
 UP BND1      Z_40_1_0  1
 UP BND1      Z_40_1_1  1
 UP BND1      Z_40_1_2  1
 UP BND1      Z_40_1_3  1
QUADOBJ
    Z_4_1_0   Z_43_1_0  -5.0851822261346558e-01
    Z_4_1_0   Z_20_1_0  -3.6661118900382988e-01
    Z_4_1_0   Z_80_1_0  -3.4958467466361853e-01
    Z_4_1_0   Z_40_1_0  -5.5970948847005042e-02
    Z_4_1_1   Z_43_1_1  -5.0851822261346558e-01
    Z_4_1_1   Z_20_1_1  -3.6661118900382988e-01
    Z_4_1_1   Z_80_1_1  -3.4958467466361853e-01
    Z_4_1_1   Z_40_1_1  -5.5970948847005042e-02
    Z_4_1_2   Z_43_1_2  -5.0851822261346558e-01
    Z_4_1_2   Z_20_1_2  -3.6661118900382988e-01
    Z_4_1_2   Z_80_1_2  -3.4958467466361853e-01
    Z_4_1_2   Z_40_1_2  -5.5970948847005042e-02
    Z_4_1_3   Z_43_1_3  -5.0851822261346558e-01
    Z_4_1_3   Z_20_1_3  -3.6661118900382988e-01
    Z_4_1_3   Z_80_1_3  -3.4958467466361853e-01
    Z_4_1_3   Z_40_1_3  -5.5970948847005042e-02
    Z_43_1_0  Z_20_1_0  -4.7572637882578889e-01
    Z_43_1_0  Z_80_1_0  -9.9999999999999989e-01
    Z_43_1_0  Z_80_2_0  -6.4438414978150116e-01
    Z_43_1_0  Z_40_1_0  -1.9957616062417444e-02
    Z_43_1_1  Z_20_1_1  -4.7572637882578889e-01
    Z_43_1_1  Z_80_1_1  -9.9999999999999989e-01
    Z_43_1_1  Z_80_2_1  -6.4438414978150116e-01
    Z_43_1_1  Z_40_1_1  -1.9957616062417444e-02
    Z_43_1_2  Z_20_1_2  -4.7572637882578889e-01
    Z_43_1_2  Z_80_1_2  -9.9999999999999989e-01
    Z_43_1_2  Z_80_2_2  -6.4438414978150116e-01
    Z_43_1_2  Z_40_1_2  -1.9957616062417444e-02
    Z_43_1_3  Z_20_1_3  -4.7572637882578889e-01
    Z_43_1_3  Z_80_1_3  -9.9999999999999989e-01
    Z_43_1_3  Z_80_2_3  -6.4438414978150116e-01
    Z_43_1_3  Z_40_1_3  -1.9957616062417444e-02
    Z_20_1_0  Z_80_1_0  -7.2704611912448991e-01
    Z_20_1_0  Z_80_2_0  -6.4438414978150116e-01
    Z_20_1_0  Z_80_3_0  -1
    Z_20_1_0  Z_120_1_0  -1
    Z_20_1_0  Z_40_1_0  -9.0256893041449193e-03
    Z_20_1_1  Z_80_1_1  -7.2704611912448991e-01
    Z_20_1_1  Z_80_2_1  -6.4438414978150116e-01
    Z_20_1_1  Z_80_3_1  -1
    Z_20_1_1  Z_120_1_1  -1
    Z_20_1_1  Z_40_1_1  -9.0256893041449193e-03
    Z_20_1_2  Z_80_1_2  -7.2704611912448991e-01
    Z_20_1_2  Z_80_2_2  -6.4438414978150116e-01
    Z_20_1_2  Z_80_3_2  -1
    Z_20_1_2  Z_120_1_2  -1
    Z_20_1_2  Z_40_1_2  -9.0256893041449193e-03
    Z_20_1_3  Z_80_1_3  -7.2704611912448991e-01
    Z_20_1_3  Z_80_2_3  -6.4438414978150116e-01
    Z_20_1_3  Z_80_3_3  -1
    Z_20_1_3  Z_120_1_3  -1
    Z_20_1_3  Z_40_1_3  -9.0256893041449193e-03
    Z_80_3_0  Z_120_1_0  -1
    Z_80_3_0  Z_40_1_0  -0.00390625
    Z_80_3_1  Z_120_1_1  -1
    Z_80_3_1  Z_40_1_1  -0.00390625
    Z_80_3_2  Z_120_1_2  -1
    Z_80_3_2  Z_40_1_2  -0.00390625
    Z_80_3_3  Z_120_1_3  -1
    Z_80_3_3  Z_40_1_3  -0.00390625
    Z_120_1_0  Z_40_1_0  -0.00390625
    Z_120_1_1  Z_40_1_1  -0.00390625
    Z_120_1_2  Z_40_1_2  -0.00390625
    Z_120_1_3  Z_40_1_3  -0.00390625
ENDATA
