ilp_joint_2/output/mitosis_ilp.sol
# Solution for model mitosis_srl_ilp
# Objective value = 8.0948477032322543e+00
Z_4_1_0 0
Z_4_1_1 0
Z_4_1_2 0
Z_4_1_3 1
Z_43_1_0 0
Z_43_1_1 0
Z_43_1_2 0
Z_43_1_3 1
Z_20_1_0 0
Z_20_1_1 0
Z_20_1_2 1
Z_20_1_3 0
Z_80_1_0 0
Z_80_1_1 0
Z_80_1_2 0
Z_80_1_3 1
Z_80_2_0 1
Z_80_2_1 0
Z_80_2_2 0
Z_80_2_3 0
Z_80_3_0 0
Z_80_3_1 0
Z_80_3_2 1
Z_80_3_3 0
Z_120_1_0 0
Z_120_1_1 0
Z_120_1_2 1
Z_120_1_3 0
Z_40_1_0 0
Z_40_1_1 0
Z_40_1_2 1
Z_40_1_3 0
